c File: flat50_3_0.col
c
c SOURCE: Joseph Culberson (joe@cs.ualberta.ca)
c DESCRIPTION: Quasi-random coloring problem
c              generated with flatness = 0
c                             probability = 0.139
c                             known coloring = 3
c                             random seed = 1646
c              Creation Date:  Tue Jun  9 12:14:25 1998
c Maximum degree = 8 Minimum degree = 1
c p edge 50 115
c cnf created by edge2cnf
p cnf 150 545
-1 -2 0
-1 -3 0
-2 -3 0
1 2 3 0
-4 -5 0
-4 -6 0
-5 -6 0
4 5 6 0
-7 -8 0
-7 -9 0
-8 -9 0
7 8 9 0
-10 -11 0
-10 -12 0
-11 -12 0
10 11 12 0
-13 -14 0
-13 -15 0
-14 -15 0
13 14 15 0
-16 -17 0
-16 -18 0
-17 -18 0
16 17 18 0
-19 -20 0
-19 -21 0
-20 -21 0
19 20 21 0
-22 -23 0
-22 -24 0
-23 -24 0
22 23 24 0
-25 -26 0
-25 -27 0
-26 -27 0
25 26 27 0
-28 -29 0
-28 -30 0
-29 -30 0
28 29 30 0
-31 -32 0
-31 -33 0
-32 -33 0
31 32 33 0
-34 -35 0
-34 -36 0
-35 -36 0
34 35 36 0
-37 -38 0
-37 -39 0
-38 -39 0
37 38 39 0
-40 -41 0
-40 -42 0
-41 -42 0
40 41 42 0
-43 -44 0
-43 -45 0
-44 -45 0
43 44 45 0
-46 -47 0
-46 -48 0
-47 -48 0
46 47 48 0
-49 -50 0
-49 -51 0
-50 -51 0
49 50 51 0
-52 -53 0
-52 -54 0
-53 -54 0
52 53 54 0
-55 -56 0
-55 -57 0
-56 -57 0
55 56 57 0
-58 -59 0
-58 -60 0
-59 -60 0
58 59 60 0
-61 -62 0
-61 -63 0
-62 -63 0
61 62 63 0
-64 -65 0
-64 -66 0
-65 -66 0
64 65 66 0
-67 -68 0
-67 -69 0
-68 -69 0
67 68 69 0
-70 -71 0
-70 -72 0
-71 -72 0
70 71 72 0
-73 -74 0
-73 -75 0
-74 -75 0
73 74 75 0
-76 -77 0
-76 -78 0
-77 -78 0
76 77 78 0
-79 -80 0
-79 -81 0
-80 -81 0
79 80 81 0
-82 -83 0
-82 -84 0
-83 -84 0
82 83 84 0
-85 -86 0
-85 -87 0
-86 -87 0
85 86 87 0
-88 -89 0
-88 -90 0
-89 -90 0
88 89 90 0
-91 -92 0
-91 -93 0
-92 -93 0
91 92 93 0
-94 -95 0
-94 -96 0
-95 -96 0
94 95 96 0
-97 -98 0
-97 -99 0
-98 -99 0
97 98 99 0
-100 -101 0
-100 -102 0
-101 -102 0
100 101 102 0
-103 -104 0
-103 -105 0
-104 -105 0
103 104 105 0
-106 -107 0
-106 -108 0
-107 -108 0
106 107 108 0
-109 -110 0
-109 -111 0
-110 -111 0
109 110 111 0
-112 -113 0
-112 -114 0
-113 -114 0
112 113 114 0
-115 -116 0
-115 -117 0
-116 -117 0
115 116 117 0
-118 -119 0
-118 -120 0
-119 -120 0
118 119 120 0
-121 -122 0
-121 -123 0
-122 -123 0
121 122 123 0
-124 -125 0
-124 -126 0
-125 -126 0
124 125 126 0
-127 -128 0
-127 -129 0
-128 -129 0
127 128 129 0
-130 -131 0
-130 -132 0
-131 -132 0
130 131 132 0
-133 -134 0
-133 -135 0
-134 -135 0
133 134 135 0
-136 -137 0
-136 -138 0
-137 -138 0
136 137 138 0
-139 -140 0
-139 -141 0
-140 -141 0
139 140 141 0
-142 -143 0
-142 -144 0
-143 -144 0
142 143 144 0
-145 -146 0
-145 -147 0
-146 -147 0
145 146 147 0
-148 -149 0
-148 -150 0
-149 -150 0
148 149 150 0
-70 -1 0
-71 -2 0
-72 -3 0
-76 -1 0
-77 -2 0
-78 -3 0
-85 -1 0
-86 -2 0
-87 -3 0
-118 -1 0
-119 -2 0
-120 -3 0
-130 -1 0
-131 -2 0
-132 -3 0
-67 -4 0
-68 -5 0
-69 -6 0
-76 -4 0
-77 -5 0
-78 -6 0
-103 -4 0
-104 -5 0
-105 -6 0
-103 -7 0
-104 -8 0
-105 -9 0
-115 -7 0
-116 -8 0
-117 -9 0
-121 -7 0
-122 -8 0
-123 -9 0
-130 -7 0
-131 -8 0
-132 -9 0
-61 -10 0
-62 -11 0
-63 -12 0
-79 -10 0
-80 -11 0
-81 -12 0
-115 -10 0
-116 -11 0
-117 -12 0
-118 -10 0
-119 -11 0
-120 -12 0
-91 -13 0
-92 -14 0
-93 -15 0
-106 -13 0
-107 -14 0
-108 -15 0
-136 -13 0
-137 -14 0
-138 -15 0
-55 -16 0
-56 -17 0
-57 -18 0
-61 -16 0
-62 -17 0
-63 -18 0
-85 -16 0
-86 -17 0
-87 -18 0
-91 -16 0
-92 -17 0
-93 -18 0
-124 -16 0
-125 -17 0
-126 -18 0
-127 -16 0
-128 -17 0
-129 -18 0
-142 -16 0
-143 -17 0
-144 -18 0
-148 -16 0
-149 -17 0
-150 -18 0
-58 -19 0
-59 -20 0
-60 -21 0
-70 -19 0
-71 -20 0
-72 -21 0
-94 -19 0
-95 -20 0
-96 -21 0
-100 -19 0
-101 -20 0
-102 -21 0
-136 -19 0
-137 -20 0
-138 -21 0
-82 -22 0
-83 -23 0
-84 -24 0
-91 -22 0
-92 -23 0
-93 -24 0
-94 -22 0
-95 -23 0
-96 -24 0
-97 -22 0
-98 -23 0
-99 -24 0
-106 -22 0
-107 -23 0
-108 -24 0
-112 -22 0
-113 -23 0
-114 -24 0
-139 -22 0
-140 -23 0
-141 -24 0
-79 -25 0
-80 -26 0
-81 -27 0
-85 -25 0
-86 -26 0
-87 -27 0
-109 -25 0
-110 -26 0
-111 -27 0
-79 -28 0
-80 -29 0
-81 -30 0
-94 -28 0
-95 -29 0
-96 -30 0
-100 -28 0
-101 -29 0
-102 -30 0
-103 -28 0
-104 -29 0
-105 -30 0
-124 -28 0
-125 -29 0
-126 -30 0
-130 -28 0
-131 -29 0
-132 -30 0
-76 -31 0
-77 -32 0
-78 -33 0
-85 -31 0
-86 -32 0
-87 -33 0
-121 -31 0
-122 -32 0
-123 -33 0
-145 -31 0
-146 -32 0
-147 -33 0
-58 -34 0
-59 -35 0
-60 -36 0
-64 -34 0
-65 -35 0
-66 -36 0
-67 -34 0
-68 -35 0
-69 -36 0
-100 -34 0
-101 -35 0
-102 -36 0
-142 -34 0
-143 -35 0
-144 -36 0
-52 -37 0
-53 -38 0
-54 -39 0
-124 -37 0
-125 -38 0
-126 -39 0
-133 -37 0
-134 -38 0
-135 -39 0
-148 -37 0
-149 -38 0
-150 -39 0
-97 -40 0
-98 -41 0
-99 -42 0
-127 -40 0
-128 -41 0
-129 -42 0
-145 -40 0
-146 -41 0
-147 -42 0
-124 -43 0
-125 -44 0
-126 -45 0
-64 -46 0
-65 -47 0
-66 -48 0
-67 -46 0
-68 -47 0
-69 -48 0
-76 -46 0
-77 -47 0
-78 -48 0
-88 -46 0
-89 -47 0
-90 -48 0
-103 -46 0
-104 -47 0
-105 -48 0
-109 -46 0
-110 -47 0
-111 -48 0
-139 -46 0
-140 -47 0
-141 -48 0
-145 -46 0
-146 -47 0
-147 -48 0
-58 -49 0
-59 -50 0
-60 -51 0
-79 -49 0
-80 -50 0
-81 -51 0
-100 -49 0
-101 -50 0
-102 -51 0
-106 -49 0
-107 -50 0
-108 -51 0
-139 -49 0
-140 -50 0
-141 -51 0
-112 -52 0
-113 -53 0
-114 -54 0
-118 -52 0
-119 -53 0
-120 -54 0
-133 -52 0
-134 -53 0
-135 -54 0
-139 -52 0
-140 -53 0
-141 -54 0
-109 -55 0
-110 -56 0
-111 -57 0
-133 -55 0
-134 -56 0
-135 -57 0
-103 -58 0
-104 -59 0
-105 -60 0
-136 -58 0
-137 -59 0
-138 -60 0
-142 -58 0
-143 -59 0
-144 -60 0
-145 -58 0
-146 -59 0
-147 -60 0
-106 -61 0
-107 -62 0
-108 -63 0
-136 -61 0
-137 -62 0
-138 -63 0
-109 -64 0
-110 -65 0
-111 -66 0
-133 -64 0
-134 -65 0
-135 -66 0
-145 -64 0
-146 -65 0
-147 -66 0
-109 -67 0
-110 -68 0
-111 -69 0
-118 -70 0
-119 -71 0
-120 -72 0
-133 -70 0
-134 -71 0
-135 -72 0
-145 -70 0
-146 -71 0
-147 -72 0
-130 -73 0
-131 -74 0
-132 -75 0
-103 -76 0
-104 -77 0
-105 -78 0
-115 -76 0
-116 -77 0
-117 -78 0
-136 -76 0
-137 -77 0
-138 -78 0
-124 -79 0
-125 -80 0
-126 -81 0
-127 -79 0
-128 -80 0
-129 -81 0
-106 -82 0
-107 -83 0
-108 -84 0
-112 -85 0
-113 -86 0
-114 -87 0
-115 -85 0
-116 -86 0
-117 -87 0
-139 -85 0
-140 -86 0
-141 -87 0
-103 -88 0
-104 -89 0
-105 -90 0
-130 -88 0
-131 -89 0
-132 -90 0
-106 -97 0
-107 -98 0
-108 -99 0
-112 -97 0
-113 -98 0
-114 -99 0
-115 -97 0
-116 -98 0
-117 -99 0
-142 -97 0
-143 -98 0
-144 -99 0
-103 -100 0
-104 -101 0
-105 -102 0
-115 -100 0
-116 -101 0
-117 -102 0
